int NumberPatients = 52
int NumberOfRooms = 1
int NumberSurgeons = 8
int NumberOfDays = 6
Duration = [107,98,75,98,98,98,98,98,98,98,157,157,39,98,98,98,98,98,98,98,81,80,103,98,98,98,98,98,98,98,98,98,98,98,98,98,98,98,60,157,101,98,98,60,98,98,98,101,98,98,98,92];
Priority = [0,0,0,0,0,0,0,0,0,0,0,0,0,0,0,0,0,0,0,0,0,0,0,0,0,0,0,0,0,0,0,0,0,0,0,0,0,0,0,0,0,0,0,0,0,0,0,0,0,0,0,1];
Waiting = [556,462,115,84,84,84,84,84,84,80,80,80,80,77,77,73,73,70,70,70,70,70,70,70,70,66,66,66,66,66,59,56,56,56,56,56,56,52,49,49,49,45,39,38,38,38,35,35,31,31,24,24];

Surgeon = [1,2,3,4,5,5,6,5,6,7,7,7,7,5,5,1,7,5,6,5,7,6,7,6,5,7,1,7,7,7,3,6,6,5,5,5,6,7,6,5,6,5,8,8,8,7,5,5,4,4,1,4];
BlockAvailability = [[[1,1]],[[0,0]],[[1,1]],[[1,1]],[[0,0]],[[0,0]]];
SurgeonAvailability = [[[1,1],[1,1],[1,1],[1,1],[1,1],[1,1]],[[1,1],[1,1],[1,1],[1,1],[1,1],[1,1]],[[1,1],[1,1],[1,1],[1,1],[1,1],[1,1]],[[1,1],[1,1],[1,1],[1,1],[1,1],[1,1]],[[1,1],[1,1],[1,1],[1,1],[1,1],[1,1]],[[1,1],[1,1],[1,1],[1,1],[1,1],[1,1]],[[1,1],[1,1],[1,1],[1,1],[1,1],[1,1]],[[1,1],[1,1],[1,1],[1,1],[1,1],[1,1]]];
